p cnf 100 217
c node "figurePreN4-0-0-0" must have at least one color
1 2 3 4 0
c node "figurePreN4-0-1-0" must have at least one color
5 6 7 8 0
c node "figurePreN4-0-2-0" must have at least one color
9 10 11 12 0
c node "figurePreN4-0-3-0" must have at least one color
13 14 15 16 0
c node "figurePreN4-0-4-0" must have at least one color
17 18 19 20 0
c node "figurePreN4-0-5-0" must have at least one color
21 22 23 24 0
c node "figurePreN4-0-6-0" must have at least one color
25 26 27 28 0
c node "figurePreN4-0-7-0" must have at least one color
29 30 31 32 0
c node "figurePreN4-0-8-0" must have at least one color
33 34 35 36 0
c node "figurePreN4-0-9-0" must have at least one color
37 38 39 40 0
c node "figurePreN4-0-10-0" must have at least one color
41 42 43 44 0
c node "figurePreN4-0-11-0" must have at least one color
45 46 47 48 0
c node "figurePreN4-0-12-0" must have at least one color
49 50 51 52 0
c node "figurePreN4-1-1-0" must have at least one color
53 54 55 56 0
c node "figurePreN4-1-2-0" must have at least one color
57 58 59 60 0
c node "figurePreN4-1-3-0" must have at least one color
61 62 63 64 0
c node "figurePreN4-1-4-0" must have at least one color
65 66 67 68 0
c node "figurePreN4-1-5-0" must have at least one color
69 70 71 72 0
c node "figurePreN4-1-6-0" must have at least one color
73 74 75 76 0
c node "figurePreN4-1-7-0" must have at least one color
77 78 79 80 0
c node "figurePreN4-1-8-0" must have at least one color
81 82 83 84 0
c node "figurePreN4-1-9-0" must have at least one color
85 86 87 88 0
c node "figurePreN4-1-10-0" must have at least one color
89 90 91 92 0
c node "figurePreN4-1-11-0" must have at least one color
93 94 95 96 0
c node "figurePreN4-1-12-0" must have at least one color
97 98 99 100 0
c nodes "figurePreN4-0-0-0" and "figurePreN4-0-1-0" may not have the same color
-1 -5 0
-2 -6 0
-3 -7 0
-4 -8 0
c nodes "figurePreN4-0-0-0" and "figurePreN4-0-2-0" may not have the same color
-1 -9 0
-2 -10 0
-3 -11 0
-4 -12 0
c nodes "figurePreN4-0-0-0" and "figurePreN4-0-3-0" may not have the same color
-1 -13 0
-2 -14 0
-3 -15 0
-4 -16 0
c nodes "figurePreN4-0-0-0" and "figurePreN4-0-4-0" may not have the same color
-1 -17 0
-2 -18 0
-3 -19 0
-4 -20 0
c nodes "figurePreN4-0-0-0" and "figurePreN4-0-5-0" may not have the same color
-1 -21 0
-2 -22 0
-3 -23 0
-4 -24 0
c nodes "figurePreN4-0-0-0" and "figurePreN4-0-6-0" may not have the same color
-1 -25 0
-2 -26 0
-3 -27 0
-4 -28 0
c nodes "figurePreN4-0-0-0" and "figurePreN4-1-1-0" may not have the same color
-1 -53 0
-2 -54 0
-3 -55 0
-4 -56 0
c nodes "figurePreN4-0-0-0" and "figurePreN4-1-2-0" may not have the same color
-1 -57 0
-2 -58 0
-3 -59 0
-4 -60 0
c nodes "figurePreN4-0-0-0" and "figurePreN4-1-3-0" may not have the same color
-1 -61 0
-2 -62 0
-3 -63 0
-4 -64 0
c nodes "figurePreN4-0-0-0" and "figurePreN4-1-4-0" may not have the same color
-1 -65 0
-2 -66 0
-3 -67 0
-4 -68 0
c nodes "figurePreN4-0-0-0" and "figurePreN4-1-5-0" may not have the same color
-1 -69 0
-2 -70 0
-3 -71 0
-4 -72 0
c nodes "figurePreN4-0-0-0" and "figurePreN4-1-6-0" may not have the same color
-1 -73 0
-2 -74 0
-3 -75 0
-4 -76 0
c nodes "figurePreN4-0-1-0" and "figurePreN4-0-2-0" may not have the same color
-5 -9 0
-6 -10 0
-7 -11 0
-8 -12 0
c nodes "figurePreN4-0-1-0" and "figurePreN4-0-6-0" may not have the same color
-5 -25 0
-6 -26 0
-7 -27 0
-8 -28 0
c nodes "figurePreN4-0-1-0" and "figurePreN4-0-7-0" may not have the same color
-5 -29 0
-6 -30 0
-7 -31 0
-8 -32 0
c nodes "figurePreN4-0-1-0" and "figurePreN4-0-12-0" may not have the same color
-5 -49 0
-6 -50 0
-7 -51 0
-8 -52 0
c nodes "figurePreN4-0-2-0" and "figurePreN4-0-3-0" may not have the same color
-9 -13 0
-10 -14 0
-11 -15 0
-12 -16 0
c nodes "figurePreN4-0-2-0" and "figurePreN4-0-7-0" may not have the same color
-9 -29 0
-10 -30 0
-11 -31 0
-12 -32 0
c nodes "figurePreN4-0-2-0" and "figurePreN4-0-8-0" may not have the same color
-9 -33 0
-10 -34 0
-11 -35 0
-12 -36 0
c nodes "figurePreN4-0-3-0" and "figurePreN4-0-4-0" may not have the same color
-13 -17 0
-14 -18 0
-15 -19 0
-16 -20 0
c nodes "figurePreN4-0-3-0" and "figurePreN4-0-8-0" may not have the same color
-13 -33 0
-14 -34 0
-15 -35 0
-16 -36 0
c nodes "figurePreN4-0-3-0" and "figurePreN4-0-9-0" may not have the same color
-13 -37 0
-14 -38 0
-15 -39 0
-16 -40 0
c nodes "figurePreN4-0-4-0" and "figurePreN4-0-5-0" may not have the same color
-17 -21 0
-18 -22 0
-19 -23 0
-20 -24 0
c nodes "figurePreN4-0-4-0" and "figurePreN4-0-9-0" may not have the same color
-17 -37 0
-18 -38 0
-19 -39 0
-20 -40 0
c nodes "figurePreN4-0-4-0" and "figurePreN4-0-10-0" may not have the same color
-17 -41 0
-18 -42 0
-19 -43 0
-20 -44 0
c nodes "figurePreN4-0-5-0" and "figurePreN4-0-6-0" may not have the same color
-21 -25 0
-22 -26 0
-23 -27 0
-24 -28 0
c nodes "figurePreN4-0-5-0" and "figurePreN4-0-10-0" may not have the same color
-21 -41 0
-22 -42 0
-23 -43 0
-24 -44 0
c nodes "figurePreN4-0-5-0" and "figurePreN4-0-11-0" may not have the same color
-21 -45 0
-22 -46 0
-23 -47 0
-24 -48 0
c nodes "figurePreN4-0-6-0" and "figurePreN4-0-11-0" may not have the same color
-25 -45 0
-26 -46 0
-27 -47 0
-28 -48 0
c nodes "figurePreN4-0-6-0" and "figurePreN4-0-12-0" may not have the same color
-25 -49 0
-26 -50 0
-27 -51 0
-28 -52 0
c nodes "figurePreN4-1-1-0" and "figurePreN4-1-2-0" may not have the same color
-53 -57 0
-54 -58 0
-55 -59 0
-56 -60 0
c nodes "figurePreN4-1-1-0" and "figurePreN4-1-6-0" may not have the same color
-53 -73 0
-54 -74 0
-55 -75 0
-56 -76 0
c nodes "figurePreN4-1-1-0" and "figurePreN4-1-7-0" may not have the same color
-53 -77 0
-54 -78 0
-55 -79 0
-56 -80 0
c nodes "figurePreN4-1-1-0" and "figurePreN4-1-12-0" may not have the same color
-53 -97 0
-54 -98 0
-55 -99 0
-56 -100 0
c nodes "figurePreN4-1-2-0" and "figurePreN4-1-3-0" may not have the same color
-57 -61 0
-58 -62 0
-59 -63 0
-60 -64 0
c nodes "figurePreN4-1-2-0" and "figurePreN4-1-7-0" may not have the same color
-57 -77 0
-58 -78 0
-59 -79 0
-60 -80 0
c nodes "figurePreN4-1-2-0" and "figurePreN4-1-8-0" may not have the same color
-57 -81 0
-58 -82 0
-59 -83 0
-60 -84 0
c nodes "figurePreN4-1-3-0" and "figurePreN4-1-4-0" may not have the same color
-61 -65 0
-62 -66 0
-63 -67 0
-64 -68 0
c nodes "figurePreN4-1-3-0" and "figurePreN4-1-8-0" may not have the same color
-61 -81 0
-62 -82 0
-63 -83 0
-64 -84 0
c nodes "figurePreN4-1-3-0" and "figurePreN4-1-9-0" may not have the same color
-61 -85 0
-62 -86 0
-63 -87 0
-64 -88 0
c nodes "figurePreN4-1-4-0" and "figurePreN4-1-5-0" may not have the same color
-65 -69 0
-66 -70 0
-67 -71 0
-68 -72 0
c nodes "figurePreN4-1-4-0" and "figurePreN4-1-9-0" may not have the same color
-65 -85 0
-66 -86 0
-67 -87 0
-68 -88 0
c nodes "figurePreN4-1-4-0" and "figurePreN4-1-10-0" may not have the same color
-65 -89 0
-66 -90 0
-67 -91 0
-68 -92 0
c nodes "figurePreN4-1-5-0" and "figurePreN4-1-6-0" may not have the same color
-69 -73 0
-70 -74 0
-71 -75 0
-72 -76 0
c nodes "figurePreN4-1-5-0" and "figurePreN4-1-10-0" may not have the same color
-69 -89 0
-70 -90 0
-71 -91 0
-72 -92 0
c nodes "figurePreN4-1-5-0" and "figurePreN4-1-11-0" may not have the same color
-69 -93 0
-70 -94 0
-71 -95 0
-72 -96 0
c nodes "figurePreN4-1-6-0" and "figurePreN4-1-11-0" may not have the same color
-73 -93 0
-74 -94 0
-75 -95 0
-76 -96 0
c nodes "figurePreN4-1-6-0" and "figurePreN4-1-12-0" may not have the same color
-73 -97 0
-74 -98 0
-75 -99 0
-76 -100 0